152 126991
1 36 35 48 76 77 94 93 124 125 152 126 150 151 127 128 123 116 115 96 79 54 45 38 28 27 26 25 24 44 55 56 67 68 80 90 99 98 97 91 78 51 75 74 50 49 73 47 71 70 69 72 53 52 46 37 33 32 2 15 3 31 30 29 14 4 13 5 12 6 39 23 22 11 7 10 8 9 17 18 40 19 20 21 43 57 65 66 42 58 64 59 63 83 87 104 111 82 88 81 89 114 113 100 101 102 103 112 143 142 141 139 140 117 110 109 108 85 84 41 60 61 62 86 107 106 105 118 137 138 119 136 135 144 145 146 134 133 120 121 132 131 147 148 130 149 129 122 95 92 34 16 
